data;
set WEIGHTS := x0 x1 x2 x3 x4 x5 x6 x7 x8 x9 x10 x11 x12 x13 x14 x15 x16 x17 x18 x19 x20 x21 x22 x23 x24 x25;
param:  cost :=
  x0  702
  x1  703
  x2  704
  x3  705
  x4  706
  x5  707
  x6  708
  x7  709
  x8  710
  x9  711
  x10  712
  x11  713
  x12  714
  x13  715
  x14  716
  x15  717
  x16  718
  x17  719
  x18  720
  x19  721
  x20  722
  x21  723
  x22  724
  x23  725
  x24  726
  x25  727;
param cap := 9100;